p wcnf 150 75 76 
1 8 -43 0 
1 137 127 0 
1 43 -31 0 
1 52 -39 0 
1 -95 -53 0 
1 98 96 0 
1 -135 132 0 
1 -9 -117 0 
1 17 -32 0 
1 133 -132 0 
1 -69 -125 0 
1 -48 18 0 
1 -4 129 0 
1 113 -64 0 
1 145 -34 0 
1 -78 -3 0 
1 23 82 0 
1 127 -8 0 
1 56 59 0 
1 68 -99 0 
1 -4 102 0 
1 148 140 0 
1 -149 -91 0 
1 -59 77 0 
1 116 -40 0 
1 65 9 0 
1 106 -29 0 
1 -91 -146 0 
1 144 -115 0 
1 70 37 0 
1 -95 -52 0 
1 -130 -145 0 
1 -78 84 0 
1 45 -13 0 
1 119 -33 0 
1 10 19 0 
1 69 115 0 
1 13 -101 0 
1 -119 -94 0 
1 -100 78 0 
1 1 29 0 
1 -35 -65 0 
1 61 111 0 
1 -20 38 0 
1 130 10 0 
1 144 -78 0 
1 -119 149 0 
1 -14 18 0 
1 113 5 0 
1 73 -77 0 
1 -60 149 0 
1 -10 36 0 
1 109 119 0 
1 -40 -68 0 
1 -49 84 0 
1 -88 -132 0 
1 -30 -1 0 
1 23 129 0 
1 -107 -118 0 
1 -34 1 0 
1 -49 -143 0 
1 16 100 0 
1 -116 40 0 
1 -6 53 0 
1 -81 -74 0 
1 42 17 0 
1 -27 80 0 
1 128 62 0 
1 56 148 0 
1 -140 8 0 
1 60 -143 0 
1 -65 -103 0 
1 -94 43 0 
1 -124 -22 0 
1 -12 91 0 
